3075.99 0
0 134 27 34 20 29 32 36 42 95 85 88 91 5 0
0 7 69 67 73 75 102 104 0
0 14 110 118 120 122 119 123 117 124 116 113 0
0 46 31 19 28 24 17 30 16 33 23 25 139 137 0
0 18 130 125 131 0
0 86 96 97 143 149 146 58 62 72 0
0 1 3 106 136 0
0 39 51 53 81 82 79 78 83 80 21 26 15 22 140 141 13 0
0 98 101 108 99 2 40 37 38 0
0 90 92 84 87 52 89 93 50 45 44 142 138 135 133 0
0 48 77 64 63 66 65 59 61 56 57 60 55 54 145 147 144 148 0
0 12 35 94 47 49 43 41 0
0 105 103 109 114 112 111 129 127 132 126 128 115 121 100 107 4 0
0 6 10 150 9 11 70 68 74 71 76 8 0
